local_stuff/boogie_stuff/boogie_experiment/boogie_fixed/91.out
STDOUT:
boogie_fixed/91.bpl(1,1): error: EOF expected
1 parse errors detected in boogie_fixed/91.bpl


STDERR:
